SPARKNaCl/why3-z3/sparknacl.adb_52_22_assert_1.smt2
;; produced by z3_gnatprove.drv ;;
(set-info :smt-lib-version 2.5)
(set-info :source |VC generated by SPARK 2014|)
(set-info :category industrial)
(set-info :status unknown)
;;; generated by SMT-LIB2 driver
;;; SMT-LIB2 driver: bit-vectors, common part
;;; SMT-LIB2: integer arithmetic
(define-fun __cdiv ((x Int) (y Int)) Int (ite (>= x 0) (div x y) (- (div (- x) y))))
(define-fun __cmod ((x Int) (y Int)) Int (ite (>= x 0) (mod x y) (- (mod (- x) y))))
(declare-datatypes ()
  ((int__ref (int__refqtmk (int__content Int)))))

(declare-sort gf16_normal_limb 0)

;; "to_rep"
(declare-fun to_rep (gf16_normal_limb) (_ BitVec 16))

;; "of_rep"
(declare-fun of_rep ((_ BitVec 16)) gf16_normal_limb)

;; "inversion_axiom"
(assert
  (forall ((x gf16_normal_limb))
    (! (= (of_rep (to_rep x)) x) :pattern ((to_rep x)) )))

;; "range_axiom"
(assert true)

;; "coerce_axiom"
(assert
  (forall ((x (_ BitVec 16)))
    (! (= (to_rep (of_rep x)) x) :pattern ((to_rep (of_rep x))) )))

(declare-sort map1 0)

;; "has_bounds"
(declare-fun has_bounds (map1
  Int
  Int) Bool)

(declare-const left map1)

(declare-const right map1)

(declare-sort gf32_any_limb 0)

;; "gf32_any_limb'int"
(declare-fun gf32_any_limbqtint (gf32_any_limb) Int)

;; "gf32_any_limb'axiom"
(assert
  (forall ((i gf32_any_limb))
    (and
      (<= (- 65536) (gf32_any_limbqtint i))
      (<= (gf32_any_limbqtint i) 132051011))))

;; "in_range"
(define-fun in_range ((x Int)) Bool
  (and (<= (- 65536) x) (<= x 132051011)))

(declare-datatypes ()
  ((gf32_any_limb__init_wrapper
   (gf32_any_limb__init_wrapperqtmk
   (rec__value gf32_any_limb)(us_attr__init Bool)))))

(declare-sort map2 0)

(declare-datatypes ()
  ((map__ref (map__refqtmk (map__content map2)))))

;; "has_bounds"
(declare-fun has_bounds1 (map2
  Int
  Int) Bool)

;; "get"
(declare-fun get (map2
  Int) gf32_any_limb__init_wrapper)

;; "set"
(declare-fun set (map2
  Int
  gf32_any_limb__init_wrapper) map2)

;; "set_eq"
(assert
  (forall ((a map2) (i Int) (v gf32_any_limb__init_wrapper))
    (! (= (get (set a i v) i) v) :pattern ((set a i v)) )))

;; "set_neq"
(assert
  (forall ((a map2) (i Int) (v gf32_any_limb__init_wrapper))
    (! (forall ((j Int))
         (! (=> (not (= i j)) (= (get (set a i v) j) (get a j))) :pattern (
         (get
           a
           j)) :pattern ((get (set a i v) j)) )) :pattern ((set a i v)) )))

;; "set_has_bounds"
(assert
  (forall ((a map2) (i Int) (f Int) (l Int) (v gf32_any_limb__init_wrapper))
    (! (=>
         (and (<= f i) (<= i l))
         (=> (has_bounds1 a f l) (has_bounds1 (set a i v) f l))) :pattern (
    (has_bounds1
      (set a i v)
      f
      l)) )))

;; "to_rep"
(define-fun to_rep1 ((x gf32_any_limb)) Int
  (gf32_any_limbqtint x))

;; "of_rep"
(declare-fun of_rep1 (Int) gf32_any_limb)

;; "inversion_axiom"
(assert
  (forall ((x gf32_any_limb))
    (! (= (of_rep1 (to_rep1 x)) x) :pattern ((to_rep1 x)) )))

;; "range_axiom"
(assert
  (forall ((x gf32_any_limb))
    (! (in_range (to_rep1 x)) :pattern ((to_rep1 x)) )))

;; "coerce_axiom"
(assert
  (forall ((x Int))
    (! (=> (in_range x) (= (to_rep1 (of_rep1 x)) x)) :pattern ((to_rep1
                                                                 (of_rep1 x))) )))

(declare-sort map3 0)

;; "get"
(declare-fun get1 (map3
  Int) gf32_any_limb)

;; "in_range"
(define-fun in_range1 ((x Int)) Bool
  (and (<= 0 x) (<= x 1)))

;; "convert"
(declare-fun convert (map2) map3)

;; "convert__def"
(assert
  (forall ((a map2))
    (forall ((temp___209 Int))
      (= (to_rep1 (of_rep1 (to_rep1 (rec__value (get a temp___209))))) 
      (to_rep1
        (get1 (convert a) temp___209))))))

;; "__is_initialized"
(define-fun us_is_initialized ((temp___expr_776 map2)) Bool
  (forall ((temp___777 Int))
    (=>
      (and (<= 0 temp___777) (<= temp___777 15))
      (= (us_attr__init (get temp___expr_776 temp___777)) true))))

;; "in_range"
(define-fun in_range2 ((x Int)) Bool
  (and (<= 0 x) (<= x 65535)))

;; "in_range"
(define-fun in_range3 ((x Int)) Bool
  (and (<= 0 x) (<= x 131071)))

(declare-const t Int)

(declare-const carry Int)

(declare-const r map2)

;; "r'unused"
(define-fun rqtunused () map__ref
  (map__refqtmk r))

;; "carry'unused"
(define-fun carryqtunused () int__ref
  (int__refqtmk carry))

;; "t'unused"
(define-fun tqtunused () int__ref
  (int__refqtmk t))

;; "Assume"
(assert (has_bounds left 0 15))

;; "Assume"
(assert (has_bounds right 0 15))

;; "Assume"
(assert true)

;; "Assume"
(assert (in_range3 t))

;; "Assume"
(assert true)

;; "Assume"
(assert (in_range1 carry))

;; "Assume"
(assert (has_bounds1 r 0 15))

(declare-const carry1 Int)

(declare-const r1 map2)

;; "r'unused"
(define-fun rqtunused1 () map__ref
  (map__refqtmk r1))

;; "carry'unused"
(define-fun carryqtunused1 () int__ref
  (int__refqtmk carry1))

;; "Ensures"
(assert
  (and
    (and
      (and
        (forall ((j Int))
          (=> (and (<= 0 j) (<= j 15)) (= (us_attr__init (get r1 j)) true)))
        (forall ((j Int))
          (=>
            (and (<= 0 j) (<= j 15))
            (in_range2 (to_rep1 (rec__value (get r1 j)))))))
      (<= 0 carry1))
    (<= carry1 1)))

;; "Assume"
(assert (in_range1 carry1))

;; "Assume"
(assert (has_bounds1 r1 0 15))

;; "Assert"
(assert (us_is_initialized r1))

;; "Assert"
(assert
  (forall ((i Int))
    (=> (and (<= 0 i) (<= i 15)) (in_range2 (to_rep1 (get1 (convert r1) i))))))

;; "int__content'result'unused"
(define-fun int__contentqtresultqtunused () Int
  carry1)

;; "o"
(define-fun o () Int
  (* 38 carry1))

;; "infix *'result'unused"
(define-fun infix_asqtresultqtunused () Int
  o)

;; "map__content'result'unused"
(define-fun map__contentqtresultqtunused () map2
  r1)

;; "temp___1557"
(define-fun temp___1557 () gf32_any_limb__init_wrapper
  (get r1 0))

;; "get'result'unused"
(define-fun getqtresultqtunused () gf32_any_limb__init_wrapper
  temp___1557)

;; "Assert"
(assert (= (us_attr__init temp___1557) true))

;; "o"
(define-fun o1 () gf32_any_limb
  (rec__value temp___1557))

;; "of_wrapper'result'unused"
(define-fun of_wrapperqtresultqtunused () gf32_any_limb
  o1)

(declare-const o2 Int)

;; "Ensures"
(assert (= (to_rep1 o1) o2))

;; "to_rep'result'unused"
(define-fun to_repqtresultqtunused () Int
  o2)

;; "o"
(define-fun o3 () Int
  (+ o2 o))

;; "infix +'result'unused"
(define-fun infix_plqtresultqtunused () Int
  o3)

;; "Ensures"
(assert (in_range o3))

;; "range_check_'result'unused"
(define-fun range_check_qtresultqtunused () Int
  o3)

(declare-const o4 gf32_any_limb)

;; "Ensures"
(assert (= (to_rep1 o4) o3))

;; "of_rep'result'unused"
(define-fun of_repqtresultqtunused () gf32_any_limb
  o4)

;; "o"
(define-fun o5 () gf32_any_limb__init_wrapper
  (gf32_any_limb__init_wrapperqtmk o4 true))

;; "to_wrapper'result'unused"
(define-fun to_wrapperqtresultqtunused () gf32_any_limb__init_wrapper
  o5)

;; "map__content'result'unused"
(define-fun map__contentqtresultqtunused1 () map2
  r1)

;; "o"
(define-fun o6 () map2
  (set r1 0 o5))

;; "set'result'unused"
(define-fun setqtresultqtunused () map2
  o6)

(declare-const r2 map2)

;; "r'unused"
(define-fun rqtunused2 () map__ref
  (map__refqtmk r2))

;; "H"
(assert (= r2 o6))

;; "temp___1572"
(define-fun temp___1572 () map3
  (convert r2))

;; "temp___1575"
(define-fun temp___1575 () Int
  (to_rep1 (get1 temp___1572 0)))

;; Goal "def'vc"
;; File "sparknacl.ads", line 450, characters 0-0
(assert
  (not (<= (- 38) temp___1575)))

(check-sat)
